ObjectiveValue = 4320.3;
flow=[(5,1,3)(5,2,0)(5,4,0)(5,6,20)(5,8,0)(5,9,0)(5,10,0)(5,11,0)(5,12,0)(6,5,6)(6,7,4)(6,10,7)(6,11,13)(8,9,2)(10,12,2)(11,5,2)(11,6,36)(12,5,8)(12,6,36)(12,8,2)(12,9,2)(12,10,4)(12,11,3)(13,12,1)];
